50 8
622 478
870 728
103 359
721 608
573 763
620 602
37 785
161 798
683 618
50 236
743 88
711 339
666 433
340 787
598 732
596 377
366 543
47 780
739 234
391 846
454 558
441 313
734 235
572 460
827 307
779 751
317 759
531 803
324 376
60 266
84 310
668 627
763 311
804 412
387 939
618 350
93 357
680 696
828 579
387 700
88 365
244 828
197 242
924 729
282 847
274 774
652 527
389 255
784 807
473 571
